peakDumbCharging = 7400; 
Machine = anon_enum(16); 
machineSpeed = [3700,3700,3700,3700,3700,3700,3700,3700,3700,3700,3700,3700,3700,3700,3700,3700]; 
machineLoad = [3700,3700,3700,3700,3700,3700,3700,3700,3700,3700,3700,3700,3700,3700,3700,3700]; 
Car = anon_enum(8); 
demandCar = [1680,13640,11920,6720,3840,1960,31400,38880]; 
arrivalCar = [74,67,64,59,56,55,45,31]; 
departureCar = [76,74,72,62,60,57,67,48]; 
